Route #1: 9 14 7 23 55
Route #2: 13 12 22 4 26 32 43
Route #3: 44 11 60 31 52 57 17 50
Route #4: 34 35 18 48 16 1 28 39
Route #5: 58 29 36 21 27 56 47 51
Route #6: 25 6 41 8 53 40 19
Route #7: 20 5 54 46 2 49
Route #8: 15 38 3
Route #9: 33 42 30 37 45 59 10 24
Cost 1035
Time 0.387042
Tempo = 0.3985515000022133